p edge 56 750
e 2 1
e 6 1
e 6 2
e 6 3
e 6 4
e 6 5
e 7 1
e 7 2
e 7 5
e 7 6
e 8 3
e 8 5
e 8 6
e 8 7
e 9 1
e 9 3
e 9 4
e 9 7
e 10 1
e 10 3
e 10 5
e 10 7
e 11 1
e 11 4
e 11 6
e 11 8
e 11 9
e 11 10
e 12 6
e 12 8
e 12 11
e 13 4
e 13 5
e 13 6
e 13 8
e 13 10
e 13 11
e 14 2
e 14 6
e 14 9
e 14 11
e 14 12
e 14 13
e 15 3
e 15 8
e 15 9
e 15 12
e 16 2
e 16 3
e 16 8
e 16 10
e 16 13
e 17 3
e 17 4
e 17 9
e 17 11
e 17 12
e 17 14
e 17 15
e 18 1
e 18 2
e 18 3
e 18 5
e 18 6
e 18 7
e 18 9
e 18 10
e 18 12
e 18 17
e 19 3
e 19 5
e 19 6
e 19 12
e 19 13
e 19 16
e 19 17
e 19 18
e 20 4
e 20 6
e 20 9
e 20 10
e 20 12
e 20 13
e 20 14
e 20 17
e 20 18
e 20 19
e 21 1
e 21 2
e 21 4
e 21 5
e 21 7
e 21 9
e 21 12
e 21 13
e 21 19
e 21 20
e 22 3
e 22 4
e 22 6
e 22 7
e 22 8
e 22 12
e 22 13
e 22 15
e 22 19
e 22 20
e 22 21
e 23 1
e 23 2
e 23 4
e 23 6
e 23 9
e 23 10
e 23 11
e 23 12
e 23 14
e 23 15
e 23 16
e 23 17
e 23 22
e 24 3
e 24 4
e 24 5
e 24 6
e 24 8
e 24 9
e 24 11
e 24 12
e 24 20
e 24 21
e 24 23
e 25 1
e 25 2
e 25 4
e 25 5
e 25 8
e 25 9
e 25 11
e 25 12
e 25 14
e 25 15
e 25 17
e 25 18
e 25 20
e 25 22
e 25 24
e 26 4
e 26 7
e 26 8
e 26 9
e 26 13
e 26 14
e 26 15
e 26 17
e 26 19
e 26 20
e 26 24
e 26 25
e 27 3
e 27 4
e 27 5
e 27 6
e 27 12
e 27 14
e 27 15
e 27 17
e 27 19
e 27 20
e 27 21
e 28 3
e 28 4
e 28 6
e 28 7
e 28 8
e 28 10
e 28 12
e 28 13
e 28 14
e 28 17
e 28 20
e 28 23
e 28 24
e 28 25
e 28 27
e 29 3
e 29 5
e 29 6
e 29 9
e 29 11
e 29 13
e 29 14
e 29 15
e 29 16
e 29 17
e 29 18
e 29 19
e 29 20
e 29 25
e 29 27
e 29 28
e 30 1
e 30 2
e 30 4
e 30 5
e 30 10
e 30 13
e 30 15
e 30 16
e 30 17
e 30 19
e 30 20
e 30 21
e 30 22
e 30 26
e 30 27
e 30 29
e 31 1
e 31 2
e 31 3
e 31 7
e 31 9
e 31 11
e 31 13
e 31 15
e 31 16
e 31 19
e 31 20
e 31 25
e 31 27
e 31 28
e 31 29
e 32 1
e 32 3
e 32 4
e 32 6
e 32 7
e 32 10
e 32 12
e 32 13
e 32 17
e 32 19
e 32 20
e 32 22
e 32 24
e 32 26
e 32 27
e 32 29
e 32 30
e 32 31
e 33 4
e 33 7
e 33 11
e 33 16
e 33 21
e 33 27
e 33 28
e 33 29
e 33 31
e 33 32
e 34 1
e 34 2
e 34 5
e 34 9
e 34 11
e 34 14
e 34 16
e 34 17
e 34 18
e 34 23
e 34 25
e 34 26
e 34 27
e 34 28
e 34 30
e 34 31
e 34 33
e 35 2
e 35 5
e 35 6
e 35 7
e 35 8
e 35 9
e 35 12
e 35 14
e 35 15
e 35 16
e 35 18
e 35 21
e 35 23
e 35 27
e 35 29
e 35 30
e 35 31
e 35 32
e 35 34
e 36 2
e 36 6
e 36 7
e 36 8
e 36 10
e 36 11
e 36 12
e 36 15
e 36 19
e 36 23
e 36 24
e 36 25
e 36 26
e 36 29
e 36 30
e 36 31
e 36 35
e 37 3
e 37 5
e 37 8
e 37 10
e 37 14
e 37 15
e 37 22
e 37 23
e 37 24
e 37 33
e 37 34
e 37 35
e 37 36
e 38 1
e 38 3
e 38 5
e 38 9
e 38 11
e 38 14
e 38 16
e 38 17
e 38 21
e 38 22
e 38 23
e 38 25
e 38 28
e 38 30
e 38 32
e 38 35
e 38 37
e 39 4
e 39 6
e 39 8
e 39 9
e 39 10
e 39 11
e 39 21
e 39 22
e 39 23
e 39 24
e 39 26
e 39 27
e 39 29
e 39 32
e 39 33
e 39 37
e 40 1
e 40 5
e 40 7
e 40 8
e 40 12
e 40 13
e 40 14
e 40 15
e 40 18
e 40 20
e 40 21
e 40 25
e 40 26
e 40 29
e 40 31
e 40 32
e 40 33
e 40 35
e 40 36
e 41 1
e 41 2
e 41 3
e 41 4
e 41 5
e 41 6
e 41 8
e 41 9
e 41 10
e 41 12
e 41 13
e 41 14
e 41 15
e 41 16
e 41 20
e 41 21
e 41 23
e 41 27
e 41 31
e 41 32
e 41 36
e 41 37
e 41 38
e 41 39
e 42 2
e 42 3
e 42 5
e 42 7
e 42 8
e 42 13
e 42 16
e 42 18
e 42 20
e 42 21
e 42 22
e 42 23
e 42 24
e 42 25
e 42 28
e 42 29
e 42 31
e 42 41
e 43 1
e 43 2
e 43 4
e 43 10
e 43 11
e 43 12
e 43 17
e 43 18
e 43 23
e 43 24
e 43 25
e 43 27
e 43 30
e 43 32
e 43 35
e 43 38
e 43 39
e 43 41
e 43 42
e 44 1
e 44 4
e 44 6
e 44 7
e 44 8
e 44 9
e 44 10
e 44 14
e 44 16
e 44 17
e 44 18
e 44 25
e 44 27
e 44 28
e 44 33
e 44 34
e 44 38
e 44 40
e 44 42
e 44 43
e 45 2
e 45 3
e 45 4
e 45 6
e 45 11
e 45 12
e 45 14
e 45 17
e 45 18
e 45 19
e 45 20
e 45 23
e 45 24
e 45 26
e 45 27
e 45 29
e 45 31
e 45 34
e 45 35
e 45 37
e 45 40
e 45 42
e 45 44
e 46 1
e 46 2
e 46 6
e 46 8
e 46 9
e 46 10
e 46 11
e 46 13
e 46 15
e 46 17
e 46 23
e 46 25
e 46 27
e 46 28
e 46 30
e 46 31
e 46 33
e 46 35
e 46 37
e 46 41
e 46 42
e 46 45
e 47 1
e 47 2
e 47 6
e 47 7
e 47 8
e 47 9
e 47 11
e 47 14
e 47 18
e 47 21
e 47 24
e 47 26
e 47 29
e 47 30
e 47 31
e 47 33
e 47 34
e 47 35
e 47 37
e 47 39
e 47 40
e 47 41
e 47 42
e 47 44
e 47 46
e 48 1
e 48 2
e 48 3
e 48 7
e 48 9
e 48 12
e 48 14
e 48 15
e 48 19
e 48 20
e 48 21
e 48 22
e 48 23
e 48 26
e 48 28
e 48 31
e 48 32
e 48 33
e 48 37
e 48 39
e 49 1
e 49 4
e 49 6
e 49 7
e 49 8
e 49 12
e 49 13
e 49 18
e 49 20
e 49 21
e 49 22
e 49 26
e 49 28
e 49 29
e 49 30
e 49 31
e 49 32
e 49 36
e 49 38
e 49 39
e 49 40
e 49 41
e 49 42
e 49 44
e 49 45
e 49 47
e 49 48
e 50 8
e 50 11
e 50 15
e 50 17
e 50 18
e 50 19
e 50 22
e 50 23
e 50 24
e 50 26
e 50 27
e 50 29
e 50 30
e 50 32
e 50 33
e 50 35
e 50 36
e 50 37
e 50 38
e 50 43
e 50 44
e 50 47
e 50 49
e 51 1
e 51 3
e 51 5
e 51 8
e 51 13
e 51 14
e 51 15
e 51 16
e 51 17
e 51 19
e 51 20
e 51 22
e 51 24
e 51 28
e 51 29
e 51 32
e 51 34
e 51 36
e 51 37
e 51 38
e 51 40
e 51 41
e 51 42
e 51 43
e 51 44
e 51 45
e 51 48
e 51 50
e 52 2
e 52 5
e 52 6
e 52 8
e 52 9
e 52 10
e 52 13
e 52 17
e 52 19
e 52 21
e 52 23
e 52 25
e 52 27
e 52 28
e 52 29
e 52 30
e 52 34
e 52 35
e 52 36
e 52 37
e 52 39
e 52 41
e 52 44
e 52 45
e 52 46
e 52 48
e 52 50
e 52 51
e 53 1
e 53 4
e 53 7
e 53 10
e 53 14
e 53 15
e 53 19
e 53 21
e 53 23
e 53 26
e 53 27
e 53 28
e 53 31
e 53 32
e 53 36
e 53 38
e 53 39
e 53 40
e 53 41
e 53 43
e 53 44
e 53 46
e 53 48
e 53 49
e 53 52
e 54 12
e 54 14
e 54 17
e 54 19
e 54 22
e 54 26
e 54 27
e 54 29
e 54 30
e 54 31
e 54 32
e 54 33
e 54 37
e 54 38
e 54 39
e 54 40
e 54 41
e 54 43
e 54 45
e 54 47
e 54 52
e 55 5
e 55 8
e 55 10
e 55 18
e 55 19
e 55 21
e 55 22
e 55 23
e 55 24
e 55 26
e 55 28
e 55 30
e 55 31
e 55 33
e 55 35
e 55 37
e 55 38
e 55 41
e 55 42
e 55 43
e 55 44
e 55 45
e 55 48
e 55 52
e 55 53
e 55 54
e 56 1
e 56 6
e 56 7
e 56 10
e 56 12
e 56 13
e 56 16
e 56 18
e 56 28
e 56 32
e 56 33
e 56 39
e 56 41
e 56 42
e 56 43
e 56 44
e 56 48
e 56 49
e 56 50
e 56 51
e 56 52
e 56 54
e 56 55
